n_res = 4;
rc = [ 0, 0, 0, 0 ];
n_tasks = 30;
d = [ 6, 4, 4, 10, 1, 4, 9, 3, 1, 8, 8, 5, 3, 9, 6, 8, 2, 9, 1, 1, 2, 8, 1, 4, 1, 8, 8, 3, 6, 3 ];
rr = [| 0, 0, 0, 0, 0, 0, 0, 0, 0, 0, 0, 0, 0, 0, 0, 0, 0, 0, 0, 0, 0, 0, 0, 0, 0, 0, 0, 0, 0, 0
      | 0, 0, 0, 0, 0, 0, 0, 0, 0, 0, 0, 0, 0, 0, 0, 0, 0, 0, 0, 0, 0, 0, 0, 0, 0, 0, 0, 0, 0, 0
      | 0, 0, 0, 0, 0, 0, 0, 0, 0, 0, 0, 0, 0, 0, 0, 0, 0, 0, 0, 0, 0, 0, 0, 0, 0, 0, 0, 0, 0, 0
      | 0, 0, 0, 0, 0, 0, 0, 0, 0, 0, 0, 0, 0, 0, 0, 0, 0, 0, 0, 0, 0, 0, 0, 0, 0, 0, 0, 0, 0, 0 |];
suc = [ { 4, 5, 12 },
       { 9, 11, 17 },
       { 5, 27 },
       { 6, 21 },
       { 7, 25 },
       { 26 },
       { 8, 10, 13 },
       { 15, 23 },
       { 14, 18 },
       { 15, 16 },
       { 23 },
       { 20, 22 },
       { 14 },
       { 15 },
       { 29 },
       { 24 },
       { 29 },
       { 19 },
       { 27 },
       { 26 },
       { 25 },
       { 24 },
       { 24 },
       { 28 },
       { 26, 30 },
       { 28, 29 },
       { 28 },
       {  },
       {  },
       {  } ];
